NAME : sim81.96212.tour
COMMENT : Length = 96212
COMMENT : Found by LKH [Keld Helsgaun] Sat Sep 15 01:15:45 2018
TYPE : TOUR
DIMENSION : 81
TOUR_SECTION
1
19
48
79
40
30
61
24
12
68
10
15
47
52
46
9
60
31
59
6
70
4
51
44
81
69
37
66
50
29
64
43
22
54
57
8
55
5
20
32
39
62
17
14
33
35
42
21
36
28
65
63
58
56
53
26
27
41
3
71
72
2
77
75
74
23
67
25
80
16
38
49
45
13
18
7
34
73
11
78
76
-1
EOF
